maximize
0.5V(0,15) + 0.5V(0,13)
subject to
V(0,15) - 1F(0,15) - 0F(0,13) - V(1,15) <= 0
V(0,13) - 0F(0,15) - 1F(0,13) - V(1,13) <= 0
V(1,15) - 1F(1,15) - 0F(1,13) - V(2,15) <= 0
V(1,13) - 0F(1,15) - 1F(1,13) - V(2,13) <= 0
V(1,15) - 1F(1,15) - 0F(1,13) - V(3,15) <= 0
V(1,13) - 0F(1,15) - 1F(1,13) - V(3,13) <= 0
V(2,15) - 1F(2,15) - 0F(2,13) - V(4,15) <= 0
V(2,13) - 0F(2,15) - 1F(2,13) - V(4,13) <= 0
V(4,15) - 1F(4,15) - 0F(4,13) - V(7,15) <= 0
V(4,13) - 0F(4,15) - 1F(4,13) - V(7,13) <= 0
V(7,15) - 1F(7,15) - 0F(7,13) - V(6,15) <= 0
V(7,13) - 0F(7,15) - 1F(7,13) - V(6,13) <= 0
V(7,15) - 1F(7,15) - 0F(7,13) - V(10,15) <= 0
V(7,13) - 0F(7,15) - 1F(7,13) - V(10,13) <= 0
V(6,15) - 1F(6,15) - 0F(6,13) - V(13,15) <= 0
V(6,13) - 0F(6,15) - 1F(6,13) - V(13,13) <= 0
V(13,15) - 1F(13,15) - 0F(13,13) - V(14,15) <= 0
V(13,13) = 0
V(14,15) - 1F(14,15) - 0F(14,13) - V(16,15) <= 0
V(14,13) - 0F(14,15) - 1F(14,13) - V(16,13) <= 0
V(14,15) - 1F(14,15) - 0F(14,13) - V(15,15) <= 0
V(14,13) - 0F(14,15) - 1F(14,13) - V(15,13) <= 0
V(15,15) = 0
V(15,13) - 0F(15,15) - 1F(15,13) - V(9,13) <= 0
V(9,15) - 1F(9,15) - 0F(9,13) - V(8,15) <= 0
V(9,13) - 0F(9,15) - 1F(9,13) - V(8,13) <= 0
V(3,15) - 1F(3,15) - 0F(3,13) - V(5,15) <= 0
V(3,13) - 0F(3,15) - 1F(3,13) - V(5,13) <= 0
V(5,15) - 1F(5,15) - 0F(5,13) - V(8,15) <= 0
V(5,13) - 0F(5,15) - 1F(5,13) - V(8,13) <= 0
V(8,15) - 1F(8,15) - 0F(8,13) - V(12,15) <= 0
V(8,13) - 0F(8,15) - 1F(8,13) - V(12,13) <= 0
V(12,15) - 1F(12,15) - 0F(12,13) - V(11,15) <= 0
V(12,13) - 0F(12,15) - 1F(12,13) - V(11,13) <= 0
V(10,15) - 1F(10,15) - 0F(10,13) - V(11,15) <= 0
V(10,13) - 0F(10,15) - 1F(10,13) - V(11,13) <= 0
V(11,15) - 1F(11,15) - 0F(11,13) - V(16,15) <= 0
V(11,13) - 0F(11,15) - 1F(11,13) - V(16,13) <= 0
V(1,15) - 1F(1,15) - 0F(1,13) - V(0,15) <= 0
V(1,13) - 0F(1,15) - 1F(1,13) - V(0,13) <= 0
V(2,15) - 1F(2,15) - 0F(2,13) - V(1,15) <= 0
V(2,13) - 0F(2,15) - 1F(2,13) - V(1,13) <= 0
V(3,15) - 1F(3,15) - 0F(3,13) - V(1,15) <= 0
V(3,13) - 0F(3,15) - 1F(3,13) - V(1,13) <= 0
V(4,15) - 1F(4,15) - 0F(4,13) - V(2,15) <= 0
V(4,13) - 0F(4,15) - 1F(4,13) - V(2,13) <= 0
V(7,15) - 1F(7,15) - 0F(7,13) - V(4,15) <= 0
V(7,13) - 0F(7,15) - 1F(7,13) - V(4,13) <= 0
V(6,15) - 1F(6,15) - 0F(6,13) - V(7,15) <= 0
V(6,13) - 0F(6,15) - 1F(6,13) - V(7,13) <= 0
V(10,15) - 1F(10,15) - 0F(10,13) - V(7,15) <= 0
V(10,13) - 0F(10,15) - 1F(10,13) - V(7,13) <= 0
V(13,15) - 1F(13,15) - 0F(13,13) - V(6,15) <= 0
V(13,13) = 0
V(14,15) - 1F(14,15) - 0F(14,13) - V(13,15) <= 0
V(14,13) - 0F(14,15) - 1F(14,13) - V(13,13) <= 0
V(16,15) - 1F(16,15) - 0F(16,13) - V(14,15) <= 0
V(16,13) - 0F(16,15) - 1F(16,13) - V(14,13) <= 0
V(15,15) = 0
V(15,13) - 0F(15,15) - 1F(15,13) - V(14,13) <= 0
V(9,15) - 1F(9,15) - 0F(9,13) - V(15,15) <= 0
V(9,13) - 0F(9,15) - 1F(9,13) - V(15,13) <= 0
V(8,15) - 1F(8,15) - 0F(8,13) - V(9,15) <= 0
V(8,13) - 0F(8,15) - 1F(8,13) - V(9,13) <= 0
V(5,15) - 1F(5,15) - 0F(5,13) - V(3,15) <= 0
V(5,13) - 0F(5,15) - 1F(5,13) - V(3,13) <= 0
V(8,15) - 1F(8,15) - 0F(8,13) - V(5,15) <= 0
V(8,13) - 0F(8,15) - 1F(8,13) - V(5,13) <= 0
V(12,15) - 1F(12,15) - 0F(12,13) - V(8,15) <= 0
V(12,13) - 0F(12,15) - 1F(12,13) - V(8,13) <= 0
V(11,15) - 1F(11,15) - 0F(11,13) - V(12,15) <= 0
V(11,13) - 0F(11,15) - 1F(11,13) - V(12,13) <= 0
V(11,15) - 1F(11,15) - 0F(11,13) - V(10,15) <= 0
V(11,13) - 0F(11,15) - 1F(11,13) - V(10,13) <= 0
V(16,15) - 1F(16,15) - 0F(16,13) - V(11,15) <= 0
V(16,13) - 0F(16,15) - 1F(16,13) - V(11,13) <= 0
F(0,15) + F(0,13) = 1
F(1,15) + F(1,13) = 1
F(2,15) + F(2,13) = 1
F(3,15) + F(3,13) = 1
F(4,15) + F(4,13) = 1
F(5,15) + F(5,13) = 1
F(6,15) + F(6,13) = 1
F(7,15) + F(7,13) = 1
F(8,15) + F(8,13) = 1
F(9,15) + F(9,13) = 1
F(10,15) + F(10,13) = 1
F(11,15) + F(11,13) = 1
F(12,15) + F(12,13) = 1
F(13,15) + F(13,13) = 1
F(14,15) + F(14,13) = 1
F(15,15) + F(15,13) = 1
F(16,15) + F(16,13) = 1
bounds
F(0,15) >= 0
F(0,13) >= 0
F(1,15) >= 0
F(1,13) >= 0
F(2,15) >= 0
F(2,13) >= 0
F(3,15) >= 0
F(3,13) >= 0
F(4,15) >= 0
F(4,13) >= 0
F(5,15) >= 0
F(5,13) >= 0
F(6,15) >= 0
F(6,13) >= 0
F(7,15) >= 0
F(7,13) >= 0
F(8,15) >= 0
F(8,13) >= 0
F(9,15) >= 0
F(9,13) >= 0
F(10,15) >= 0
F(10,13) >= 0
F(11,15) >= 0
F(11,13) >= 0
F(12,15) >= 0
F(12,13) >= 0
F(13,15) >= 0
F(13,13) >= 0
F(14,15) >= 0
F(14,13) >= 0
F(15,15) >= 0
F(15,13) >= 0
F(16,15) >= 0
F(16,13) >= 0
V(0,13) free
V(1,13) free
V(2,13) free
V(3,13) free
V(4,13) free
V(5,13) free
V(6,13) free
V(7,13) free
V(8,13) free
V(9,13) free
V(10,13) free
V(11,13) free
V(12,13) free
V(13,13) free
V(14,13) free
V(15,13) free
V(16,13) free
end